c Random generated cnf formula, satisfiable: true
p cnf 10 50
-4 -9 -5 0
-7 9 -5 0
-4 -1 -9 0
4 -9 -8 0
-9 6 3 0
-8 9 10 0
8 -6 -3 0
8 -5 -10 0
-10 -3 6 0
-10 -6 -7 0
4 8 -6 0
4 1 -7 0
5 1 -10 0
-6 -9 -8 0
-3 6 -7 0
4 -8 1 0
-1 -8 7 0
-6 -10 7 0
3 -8 7 0
-4 5 -10 0
-8 -9 -6 0
5 -9 8 0
-8 -2 -5 0
-10 -3 -7 0
-10 3 8 0
-5 -7 -6 0
6 -8 4 0
-10 -3 2 0
1 10 3 0
1 2 5 0
8 -10 -3 0
-6 8 5 0
-5 -2 -7 0
-10 9 5 0
-3 -1 7 0
-9 4 -7 0
2 8 -3 0
-6 8 7 0
-9 3 2 0
8 9 1 0
-9 -3 -7 0
4 5 -10 0
-8 -6 -2 0
10 -8 -5 0
-2 9 5 0
10 -2 -7 0
10 -5 2 0
-6 5 9 0
-3 2 10 0
-1 -5 9 0
